40
1 0 5
2 0 5
2 1 2
3 0 3
3 1 2
3 2 2
4 0 5
4 1 2
4 2 1
4 3 5
5 0 1
5 1 2
5 2 2
5 3 3
5 4 1
6 0 3
6 1 4
6 2 1
6 3 1
6 4 1
6 5 3
7 0 1
7 1 5
7 2 5
7 3 2
7 4 1
7 5 4
7 6 4
8 0 2
8 1 2
8 2 4
8 3 3
8 4 2
8 5 4
8 6 1
8 7 4
9 0 2
9 1 5
9 2 3
9 3 2
9 4 5
9 5 2
9 6 3
9 7 1
9 8 5
10 0 4
10 1 3
10 2 4
10 3 4
10 4 4
10 5 4
10 6 5
10 7 1
10 8 5
10 9 4
11 0 5
11 1 2
11 2 4
11 3 5
11 4 3
11 5 5
11 6 4
11 7 3
11 8 1
11 9 2
11 10 3
12 0 3
12 1 5
12 2 1
12 3 1
12 4 4
12 5 4
12 6 4
12 7 4
12 8 5
12 9 1
12 10 4
12 11 5
13 0 2
13 1 2
13 2 1
13 3 2
13 4 4
13 5 1
13 6 3
13 7 2
13 8 2
13 9 3
13 10 3
13 11 1
13 12 5
14 0 2
14 1 1
14 2 5
14 3 3
14 4 3
14 5 5
14 6 5
14 7 5
14 8 5
14 9 2
14 10 2
14 11 1
14 12 2
14 13 1
15 0 3
15 1 5
15 2 3
15 3 4
15 4 4
15 5 4
15 6 2
15 7 5
15 8 4
15 9 5
15 10 3
15 11 2
15 12 5
15 13 1
15 14 5
16 0 3
16 1 2
16 2 5
16 3 1
16 4 3
16 5 3
16 6 5
16 7 3
16 8 1
16 9 4
16 10 3
16 11 1
16 12 1
16 13 4
16 14 4
16 15 2
17 0 3
17 1 1
17 2 4
17 3 4
17 4 1
17 5 2
17 6 1
17 7 2
17 8 2
17 9 3
17 10 4
17 11 5
17 12 4
17 13 5
17 14 3
17 15 2
17 16 5
18 0 3
18 1 3
18 2 5
18 3 2
18 4 4
18 5 5
18 6 1
18 7 5
18 8 2
18 9 2
18 10 5
18 11 1
18 12 3
18 13 5
18 14 3
18 15 4
18 16 1
18 17 4
19 0 1
19 1 3
19 2 4
19 3 3
19 4 5
19 5 2
19 6 1
19 7 5
19 8 4
19 9 4
19 10 5
19 11 4
19 12 3
19 13 3
19 14 3
19 15 1
19 16 3
19 17 4
19 18 4
20 0 4
20 1 4
20 2 4
20 3 2
20 4 4
20 5 1
20 6 2
20 7 5
20 8 2
20 9 4
20 10 3
20 11 5
20 12 5
20 13 5
20 14 4
20 15 1
20 16 2
20 17 3
20 18 1
20 19 5
21 0 3
21 1 1
21 2 5
21 3 1
21 4 2
21 5 1
21 6 2
21 7 1
21 8 5
21 9 4
21 10 3
21 11 3
21 12 1
21 13 4
21 14 3
21 15 2
21 16 3
21 17 1
21 18 5
21 19 4
21 20 1
22 0 3
22 1 4
22 2 4
22 3 3
22 4 1
22 5 4
22 6 3
22 7 4
22 8 4
22 9 2
22 10 3
22 11 4
22 12 4
22 13 2
22 14 4
22 15 4
22 16 2
22 17 2
22 18 1
22 19 4
22 20 1
22 21 2
23 0 5
23 1 4
23 2 2
23 3 2
23 4 3
23 5 5
23 6 5
23 7 2
23 8 3
23 9 5
23 10 4
23 11 4
23 12 3
23 13 4
23 14 3
23 15 2
23 16 5
23 17 1
23 18 4
23 19 5
23 20 2
23 21 4
23 22 4
24 0 4
24 1 2
24 2 1
24 3 4
24 4 3
24 5 5
24 6 3
24 7 4
24 8 3
24 9 2
24 10 3
24 11 3
24 12 1
24 13 2
24 14 3
24 15 2
24 16 2
24 17 4
24 18 3
24 19 1
24 20 3
24 21 1
24 22 3
24 23 3
25 0 2
25 1 5
25 2 2
25 3 5
25 4 1
25 5 1
25 6 3
25 7 2
25 8 2
25 9 1
25 10 4
25 11 3
25 12 5
25 13 5
25 14 3
25 15 3
25 16 1
25 17 4
25 18 3
25 19 5
25 20 3
25 21 4
25 22 2
25 23 2
25 24 2
26 0 5
26 1 3
26 2 2
26 3 5
26 4 2
26 5 4
26 6 5
26 7 5
26 8 1
26 9 1
26 10 1
26 11 4
26 12 5
26 13 2
26 14 2
26 15 2
26 16 5
26 17 1
26 18 2
26 19 4
26 20 5
26 21 2
26 22 4
26 23 3
26 24 2
26 25 3
27 0 5
27 1 3
27 2 2
27 3 3
27 4 2
27 5 3
27 6 1
27 7 3
27 8 1
27 9 4
27 10 5
27 11 5
27 12 1
27 13 1
27 14 4
27 15 4
27 16 3
27 17 5
27 18 3
27 19 1
27 20 4
27 21 4
27 22 4
27 23 1
27 24 2
27 25 1
27 26 4
28 0 5
28 1 5
28 2 1
28 3 5
28 4 1
28 5 5
28 6 5
28 7 5
28 8 3
28 9 1
28 10 2
28 11 1
28 12 5
28 13 2
28 14 4
28 15 5
28 16 1
28 17 4
28 18 1
28 19 4
28 20 1
28 21 5
28 22 4
28 23 5
28 24 2
28 25 5
28 26 3
28 27 4
29 0 5
29 1 5
29 2 1
29 3 1
29 4 2
29 5 5
29 6 4
29 7 3
29 8 4
29 9 5
29 10 3
29 11 5
29 12 4
29 13 5
29 14 3
29 15 2
29 16 4
29 17 2
29 18 1
29 19 3
29 20 1
29 21 3
29 22 5
29 23 4
29 24 3
29 25 2
29 26 5
29 27 2
29 28 2
30 0 2
30 1 4
30 2 3
30 3 1
30 4 4
30 5 4
30 6 4
30 7 3
30 8 2
30 9 3
30 10 2
30 11 2
30 12 1
30 13 4
30 14 3
30 15 4
30 16 2
30 17 4
30 18 5
30 19 3
30 20 5
30 21 1
30 22 4
30 23 4
30 24 5
30 25 2
30 26 4
30 27 4
30 28 5
30 29 3
31 0 5
31 1 4
31 2 2
31 3 4
31 4 5
31 5 1
31 6 1
31 7 3
31 8 5
31 9 4
31 10 4
31 11 5
31 12 1
31 13 3
31 14 3
31 15 1
31 16 2
31 17 4
31 18 3
31 19 2
31 20 2
31 21 1
31 22 5
31 23 3
31 24 4
31 25 3
31 26 4
31 27 1
31 28 2
31 29 1
31 30 1
32 0 2
32 1 3
32 2 3
32 3 3
32 4 3
32 5 2
32 6 3
32 7 2
32 8 3
32 9 4
32 10 4
32 11 4
32 12 1
32 13 3
32 14 2
32 15 4
32 16 3
32 17 4
32 18 4
32 19 3
32 20 1
32 21 4
32 22 1
32 23 2
32 24 1
32 25 1
32 26 5
32 27 2
32 28 5
32 29 5
32 30 2
32 31 2
33 0 1
33 1 1
33 2 2
33 3 2
33 4 4
33 5 3
33 6 5
33 7 3
33 8 3
33 9 2
33 10 5
33 11 2
33 12 3
33 13 2
33 14 2
33 15 1
33 16 3
33 17 1
33 18 5
33 19 5
33 20 3
33 21 3
33 22 2
33 23 3
33 24 4
33 25 4
33 26 4
33 27 2
33 28 5
33 29 4
33 30 5
33 31 4
33 32 5
34 0 5
34 1 4
34 2 1
34 3 2
34 4 2
34 5 2
34 6 3
34 7 5
34 8 2
34 9 1
34 10 3
34 11 3
34 12 3
34 13 4
34 14 3
34 15 5
34 16 5
34 17 1
34 18 5
34 19 2
34 20 2
34 21 1
34 22 3
34 23 1
34 24 4
34 25 3
34 26 3
34 27 1
34 28 2
34 29 1
34 30 4
34 31 2
34 32 3
34 33 4
35 0 3
35 1 2
35 2 2
35 3 4
35 4 3
35 5 3
35 6 3
35 7 3
35 8 1
35 9 5
35 10 2
35 11 3
35 12 2
35 13 2
35 14 4
35 15 4
35 16 2
35 17 5
35 18 2
35 19 1
35 20 5
35 21 2
35 22 3
35 23 2
35 24 3
35 25 4
35 26 5
35 27 5
35 28 3
35 29 2
35 30 4
35 31 5
35 32 2
35 33 1
35 34 5
36 0 2
36 1 2
36 2 4
36 3 2
36 4 1
36 5 2
36 6 3
36 7 1
36 8 3
36 9 3
36 10 3
36 11 1
36 12 5
36 13 5
36 14 2
36 15 1
36 16 5
36 17 5
36 18 2
36 19 4
36 20 2
36 21 1
36 22 3
36 23 1
36 24 4
36 25 5
36 26 3
36 27 1
36 28 1
36 29 2
36 30 2
36 31 2
36 32 3
36 33 2
36 34 5
36 35 1
37 0 2
37 1 1
37 2 4
37 3 3
37 4 3
37 5 3
37 6 1
37 7 4
37 8 2
37 9 1
37 10 5
37 11 4
37 12 4
37 13 3
37 14 2
37 15 2
37 16 1
37 17 5
37 18 2
37 19 5
37 20 1
37 21 4
37 22 5
37 23 4
37 24 2
37 25 4
37 26 5
37 27 1
37 28 3
37 29 3
37 30 5
37 31 5
37 32 1
37 33 4
37 34 3
37 35 3
37 36 2
38 0 2
38 1 1
38 2 2
38 3 3
38 4 2
38 5 4
38 6 5
38 7 5
38 8 4
38 9 2
38 10 3
38 11 2
38 12 3
38 13 5
38 14 4
38 15 5
38 16 3
38 17 4
38 18 3
38 19 3
38 20 1
38 21 4
38 22 1
38 23 2
38 24 1
38 25 4
38 26 4
38 27 4
38 28 5
38 29 1
38 30 1
38 31 3
38 32 3
38 33 4
38 34 1
38 35 1
38 36 1
38 37 3
39 0 3
39 1 2
39 2 3
39 3 2
39 4 5
39 5 3
39 6 3
39 7 2
39 8 2
39 9 3
39 10 5
39 11 1
39 12 3
39 13 1
39 14 5
39 15 4
39 16 5
39 17 5
39 18 3
39 19 2
39 20 4
39 21 4
39 22 3
39 23 5
39 24 2
39 25 1
39 26 5
39 27 1
39 28 2
39 29 3
39 30 5
39 31 1
39 32 2
39 33 3
39 34 5
39 35 5
39 36 4
39 37 4
39 38 1
